0000000000000000
0001111111100000
0001111111111000
0011111111111000
0001000011111100
0000000001111100
0000000000111100
0000000000111100
0000000000111100
0000000001111100
0000000011111000
0001111111111110
0011111111111110
0011111111111100
0000000000000000
0000000000000000
